SDVRP instances/custom_instances/p02_14_split0.vrp
NAME:p02_14_split
BEST_KNOWN: 0
COMMENT: 0
DIMENSION: 345
CAPACITY: 140
EDGE_WEIGHT_FORMAT: FUNCTION
EDGE_WEIGHT_TYPE: EXACT_2D
NODE_COORD_SECTION
1 0.00000 0.00000
2 -23 -21
3 -23 -21
4 -23 -21
5 -23 -21
6 -31 -37
7 -31 -37
8 -22 -45
9 -22 -45
10 -22 -45
11 18 22
12 18 22
13 18 22
14 18 22
15 18 22
16 18 22
17 26 -45
18 26 -45
19 26 -45
20 15 -8
21 15 -8
22 15 -8
23 15 -8
24 15 -8
25 15 -8
26 15 -8
27 19 33
28 19 33
29 19 33
30 19 33
31 19 33
32 19 33
33 19 33
34 19 33
35 33 16
36 33 16
37 11 19
38 11 19
39 11 19
40 11 19
41 11 19
42 11 19
43 11 19
44 6 25
45 6 25
46 6 25
47 6 25
48 6 25
49 6 25
50 6 25
51 6 25
52 6 25
53 5 32
54 5 32
55 5 32
56 5 32
57 27 5
58 27 5
59 27 5
60 27 5
61 -10 8
62 -10 8
63 -10 8
64 -10 8
65 -10 8
66 48 -28
67 48 -28
68 48 -28
69 48 -28
70 48 -28
71 48 -28
72 48 -28
73 16 -32
74 16 -32
75 16 -32
76 16 -32
77 16 -32
78 16 -32
79 16 -32
80 16 -32
81 1 -48
82 1 -48
83 1 -48
84 1 -48
85 1 -48
86 -47 -7
87 -47 -7
88 -47 -7
89 -47 -7
90 -47 -7
91 -47 -7
92 -23 -13
93 -23 -13
94 -4 25
95 -4 25
96 -4 25
97 -4 25
98 -4 25
99 42 35
100 42 35
101 -9 -33
102 -9 -33
103 -9 -33
104 -9 -33
105 49 26
106 49 26
107 49 26
108 49 26
109 22 24
110 22 24
111 22 24
112 22 24
113 22 24
114 22 24
115 -16 23
116 -16 23
117 -16 23
118 30 49
119 30 49
120 30 49
121 30 49
122 30 49
123 30 49
124 30 49
125 -14 29
126 -14 29
127 -14 29
128 -14 29
129 8 -28
130 8 -28
131 8 -28
132 8 -28
133 -43 -10
134 -43 -10
135 -43 -10
136 -43 -10
137 -43 -10
138 -37 24
139 -37 24
140 43 38
141 43 38
142 43 38
143 43 38
144 43 38
145 13 -24
146 13 -24
147 13 -24
148 13 -24
149 13 -24
150 13 -24
151 -46 -37
152 -46 -37
153 -46 -37
154 -46 -37
155 -46 -37
156 -46 -37
157 -46 -37
158 -39 45
159 -39 45
160 -39 45
161 -39 45
162 -39 45
163 -39 45
164 -39 45
165 34 5
166 34 5
167 34 5
168 34 5
169 34 5
170 34 5
171 23 -4
172 23 -4
173 23 -4
174 23 -4
175 23 -4
176 21 -19
177 21 -19
178 21 -19
179 21 -19
180 -36 31
181 -36 31
182 -36 31
183 -12 -39
184 -12 -39
185 -12 -39
186 22 -19
187 22 -19
188 22 -19
189 22 -19
190 22 -19
191 34 -6
192 34 -6
193 34 -6
194 34 -6
195 34 -6
196 -11 35
197 -11 35
198 -11 35
199 -11 35
200 -11 35
201 -3 34
202 -3 34
203 -3 34
204 40 47
205 40 47
206 40 47
207 40 47
208 40 47
209 40 47
210 27 -32
211 27 -32
212 27 -32
213 -21 -25
214 -21 -25
215 -21 -25
216 -21 -25
217 -13 -22
218 -13 -22
219 -19 8
220 -19 8
221 -19 8
222 -19 8
223 -23 30
224 -23 30
225 -23 30
226 5 3
227 9 -18
228 9 -18
229 9 -18
230 9 -18
231 9 -18
232 9 -18
233 9 -18
234 9 -18
235 44 48
236 44 48
237 44 48
238 44 48
239 45 17
240 45 17
241 45 17
242 45 17
243 -45 23
244 -45 23
245 -45 23
246 -45 23
247 -45 23
248 -7 -35
249 -7 -35
250 -7 -35
251 -7 -35
252 -7 -35
253 -7 -35
254 -5 -42
255 -5 -42
256 -5 -42
257 -5 -42
258 -5 -42
259 -5 -42
260 29 31
261 29 31
262 29 31
263 29 31
264 29 31
265 43 -37
266 43 -37
267 43 -37
268 33 15
269 33 15
270 33 15
271 33 15
272 29 15
273 29 15
274 29 15
275 29 15
276 29 15
277 29 15
278 2 28
279 2 28
280 2 28
281 2 28
282 2 28
283 -9 45
284 8 40
285 8 40
286 8 40
287 -43 20
288 -43 20
289 32 -40
290 32 -40
291 32 -40
292 32 -40
293 32 -40
294 -3 11
295 -3 11
296 -3 11
297 -3 11
298 -3 11
299 -3 11
300 -3 11
301 13 -33
302 9 43
303 9 43
304 9 43
305 42 25
306 42 25
307 -42 -8
308 -42 -8
309 -42 -8
310 -42 -8
311 -42 -8
312 -42 -8
313 -42 -8
314 9 -33
315 9 -33
316 9 -33
317 -25 44
318 -25 44
319 42 -7
320 42 -7
321 42 -7
322 42 -7
323 42 -7
324 42 -7
325 42 -7
326 42 -7
327 -19 20
328 -19 20
329 -19 20
330 -19 20
331 -19 20
332 -19 20
333 -39 -7
334 -39 -7
335 -39 -7
336 -39 -7
337 -39 -7
338 -39 -7
339 -39 -7
340 -39 -7
341 42 24
342 42 24
343 42 24
344 42 24
345 42 24
DEMAND_SECTION
1 0
2 28
3 1
4 1
5 1
6 28
7 1
8 28
9 1
10 1
11 28
12 14
13 7
14 1
15 1
16 1
17 14
18 7
19 1
20 28
21 14
22 7
23 1
24 1
25 1
26 1
27 28
28 14
29 7
30 1
31 1
32 1
33 1
34 1
35 28
36 7
37 28
38 28
39 1
40 1
41 1
42 1
43 1
44 28
45 28
46 7
47 1
48 1
49 1
50 1
51 1
52 1
53 28
54 14
55 1
56 1
57 28
58 14
59 7
60 1
61 14
62 1
63 1
64 1
65 1
66 14
67 7
68 1
69 1
70 1
71 1
72 1
73 28
74 14
75 1
76 1
77 1
78 1
79 1
80 1
81 28
82 28
83 7
84 1
85 1
86 14
87 1
88 1
89 1
90 1
91 1
92 28
93 28
94 28
95 28
96 1
97 1
98 1
99 28
100 1
101 28
102 28
103 1
104 1
105 28
106 1
107 1
108 1
109 28
110 28
111 1
112 1
113 1
114 1
115 14
116 7
117 1
118 28
119 7
120 1
121 1
122 1
123 1
124 1
125 28
126 14
127 1
128 1
129 28
130 28
131 1
132 1
133 28
134 28
135 1
136 1
137 1
138 28
139 7
140 14
141 7
142 1
143 1
144 1
145 28
146 7
147 1
148 1
149 1
150 1
151 28
152 1
153 1
154 1
155 1
156 1
157 1
158 14
159 7
160 1
161 1
162 1
163 1
164 1
165 28
166 28
167 1
168 1
169 1
170 1
171 28
172 1
173 1
174 1
175 1
176 14
177 1
178 1
179 1
180 28
181 14
182 7
183 28
184 14
185 1
186 28
187 28
188 1
189 1
190 1
191 28
192 28
193 1
194 1
195 1
196 28
197 28
198 1
199 1
200 1
201 28
202 7
203 1
204 28
205 28
206 1
207 1
208 1
209 1
210 14
211 7
212 1
213 28
214 28
215 1
216 1
217 14
218 7
219 28
220 28
221 7
222 1
223 28
224 28
225 1
226 28
227 28
228 28
229 7
230 1
231 1
232 1
233 1
234 1
235 28
236 28
237 7
238 1
239 14
240 1
241 1
242 1
243 28
244 14
245 1
246 1
247 1
248 14
249 1
250 1
251 1
252 1
253 1
254 14
255 7
256 1
257 1
258 1
259 1
260 28
261 28
262 1
263 1
264 1
265 28
266 28
267 14
268 28
269 1
270 1
271 1
272 28
273 14
274 1
275 1
276 1
277 1
278 28
279 14
280 1
281 1
282 1
283 28
284 28
285 7
286 1
287 14
288 7
289 28
290 14
291 1
292 1
293 1
294 14
295 7
296 1
297 1
298 1
299 1
300 1
301 28
302 28
303 28
304 1
305 28
306 14
307 28
308 28
309 7
310 1
311 1
312 1
313 1
314 28
315 28
316 7
317 28
318 1
319 28
320 14
321 1
322 1
323 1
324 1
325 1
326 1
327 28
328 28
329 7
330 1
331 1
332 1
333 28
334 14
335 1
336 1
337 1
338 1
339 1
340 1
341 14
342 7
343 1
344 1
345 1
DEPOT_SECTION
1
-1
EOF