SDVRP instances/custom_instances/p02_14_split0.sol
344 -3 2 1 4 215 214 212 213 100 217 216 -10 112 109 110 108 111 27 33 28 29 31 26 30 -15 13 11 14 12 344 343 342 341 340 304 305 106 105 104 107 238 239 241 240 -20 24 19 145 144 147 129 131 128 130 -22 21 23 25 65 67 70 68 71 66 69 266 265 264 186 187 189 188 -32 123 122 121 117 120 119 118 208 203 207 206 234 235 237 236 261 262 113 -40 39 38 36 37 41 42 -49 51 48 47 44 43 45 46 50 279 278 277 281 280 -55 52 53 54 285 284 283 302 303 301 -58 57 56 59 164 165 168 167 169 166 -61 62 64 63 60 328 327 326 219 218 221 -84 82 83 81 80 257 258 256 255 253 254 249 247 251 250 248 252 101 103 102 -91 92 306 307 310 309 311 -97 95 96 200 202 201 282 199 195 198 196 197 299 294 -99 98 143 142 139 140 141 204 205 263 260 259 -116 115 114 124 127 125 126 94 93 298 296 293 297 295 -136 134 135 132 133 85 90 86 87 89 88 312 308 339 332 338 336 334 335 337 333 -149 148 146 17 16 18 291 290 288 292 289 211 209 210 185 178 176 177 175 -154 150 156 151 155 152 153 5 6 7 8 9 182 183 184 -174 173 171 170 172 192 191 190 194 193 325 322 323 321 319 320 318 324 -220 287 286 244 243 246 245 242 137 138 223 -222 224 316 317 162 161 163 159 157 158 160 180 179 181 330 329 331 -225 276 271 273 275 272 274 35 34 270 268 267 269 -231 227 226 230 228 229 233 -232 72 75 76 77 78 79 73 74 300 314 313 315 0 





OBJ=
2282.569
BEST_KNOWN=
0.000